     1
     3
    43    101     11
blk-1-split-1
6
       1       43        1      101        1        1        3
       1       43        1      101       11       11        3
       1        1        1      101        1       11        5
       1       43        1        1        1       11        2
       1       43      101      101        1       11        4
      43       43        1      101       -1      -11       -1
       1        1        1      101       -1      -11        2
    26    101     11
blk-1-split-2
6
       1       26        1      101        1        1        3
       1       26        1      101       11       11        3
       1       26        1        1        1       11        8
       1       26      101      101        1       11        4
       1        1        1      101       -1      -11       -1
      43       43        1      101       -1      -11        1
      26       26        1      101       -1      -11       -1
       1        1        1      101       -1      -11        3
    34    101     11
blk-1-split-3
6
       1       34        1      101        1        1        3
       1       34        1      101       11       11        3
      34       34        1      101        1       11        6
       1       34        1        1        1       11        2
       1       34      101      101        1       11        4
       1        1        1      101       -1      -11       -1
      26       26        1      101       -1      -11        2
